# Solution for model la11
# Objective value = 1.2219999998776980e+03
C 1221.999999878
x_0_0 0.000000000
x_0_1 54.000000000
x_0_2 579.000000000
x_0_3 661.000000000
x_0_4 977.000000000
x_1_0 191.000000000
x_1_1 324.000000000
x_1_2 625.000000000
x_1_3 699.000000000
x_1_4 1195.999999878
x_2_0 0.000000000
x_2_1 454.000000000
x_2_2 496.000000000
x_2_3 792.000000000
x_2_4 981.000000000
x_3_0 34.000000000
x_3_1 100.000000000
x_3_2 295.000000000
x_3_3 632.000000000
x_3_4 696.000000000
x_4_0 108.000000000
x_4_1 603.000000000
x_4_2 716.000000000
x_4_3 773.000000000
x_4_4 881.000000000
x_5_0 183.000000000
x_5_1 341.000000000
x_5_2 487.000000000
x_5_3 599.000000000
x_5_4 801.000000000
x_6_0 212.000000000
x_6_1 458.000000000
x_6_2 535.000000000
x_6_3 855.000000000
x_6_4 1084.000000000
x_7_0 19.000000000
x_7_1 177.000000000
x_7_2 255.000000000
x_7_3 665.000000000
x_7_4 942.000000000
x_8_0 535.000000000
x_8_1 576.000000000
x_8_2 687.000000000
x_8_3 775.000000000
x_8_4 1186.000000000
x_9_0 12.000000000
x_9_1 496.000000000
x_9_2 622.000000000
x_9_3 715.000000000
x_9_4 836.000000000
x_10_0 392.000000000
x_10_1 523.000000000
x_10_2 942.000000000
x_10_3 949.000000000
x_10_4 1039.000000000
x_11_0 9.000000000
x_11_1 201.000000000
x_11_2 731.000000000
x_11_3 792.000000000
x_11_4 801.000000000
x_12_0 75.000000000
x_12_1 384.000000000
x_12_2 640.000000000
x_12_3 1080.000000000
x_12_4 1205.999999878
x_13_0 134.000000000
x_13_1 296.000000000
x_13_2 560.000000000
x_13_3 812.000000000
x_13_4 1020.000000000
x_14_0 0.000000000
x_14_1 305.000000000
x_14_2 402.000000000
x_14_3 443.000000000
x_14_4 1159.000000000
x_15_0 0.000000000
x_15_1 792.000000000
x_15_2 906.000000000
x_15_3 1070.000000000
x_15_4 1124.999999878
x_16_0 262.000000000
x_16_1 348.000000000
x_16_2 376.000000000
x_16_3 1002.000000000
x_16_4 1087.999999878
x_17_0 166.000000000
x_17_1 840.000000000
x_17_2 873.000000000
x_17_3 915.000000000
x_17_4 1179.999999878
x_18_0 374.000000000
x_18_1 873.000000000
x_18_2 945.000000000
x_18_3 1085.000000000
x_18_4 1159.000000000
x_19_0 102.000000000
x_19_1 296.000000000
x_19_2 376.000000000
x_19_3 454.000000000
x_19_4 1125.999999878
y_0_1_0 1.000000000
y_0_1_1 0.000000000
y_0_1_2 0.000000000
y_0_1_3 1.000000000
y_0_1_4 1.000000000
y_0_2_0 1.000000000
y_0_2_1 0.000000000
y_0_2_2 0.000000000
y_0_2_3 0.000000000
y_0_2_4 1.000000000
y_0_3_0 0.000000000
y_0_3_1 0.000000000
y_0_3_2 0.000000000
y_0_3_3 1.000000000
y_0_3_4 1.000000000
y_0_4_0 1.000000000
y_0_4_1 0.000000000
y_0_4_2 0.000000000
y_0_4_3 0.000000000
y_0_4_4 1.000000000
y_0_5_0 1.000000000
y_0_5_1 0.000000000
y_0_5_2 0.000000000
y_0_5_3 1.000000000
y_0_5_4 1.000000000
y_0_6_0 1.000000000
y_0_6_1 0.000000000
y_0_6_2 0.000000000
y_0_6_3 0.000000000
y_0_6_4 1.000000000
y_0_7_0 0.000000000
y_0_7_1 0.000000000
y_0_7_2 0.000000000
y_0_7_3 1.000000000
y_0_7_4 1.000000000
y_0_8_0 0.000000000
y_0_8_1 0.000000000
y_0_8_2 0.000000000
y_0_8_3 0.000000000
y_0_8_4 1.000000000
y_0_9_0 1.000000000
y_0_9_1 0.000000000
y_0_9_2 0.000000000
y_0_9_3 0.000000000
y_0_9_4 1.000000000
y_0_10_0 1.000000000
y_0_10_1 0.000000000
y_0_10_2 0.000000000
y_0_10_3 1.000000000
y_0_10_4 1.000000000
y_0_11_0 0.000000000
y_0_11_1 0.000000000
y_0_11_2 0.000000000
y_0_11_3 0.000000000
y_0_11_4 1.000000000
y_0_12_0 0.000000000
y_0_12_1 0.000000000
y_0_12_2 0.000000000
y_0_12_3 0.000000000
y_0_12_4 1.000000000
y_0_13_0 0.000000000
y_0_13_1 0.000000000
y_0_13_2 0.000000000
y_0_13_3 0.000000000
y_0_13_4 1.000000000
y_0_14_0 1.000000000
y_0_14_1 0.000000000
y_0_14_2 0.000000000
y_0_14_3 1.000000000
y_0_14_4 1.000000000
y_0_15_0 0.000000000
y_0_15_1 1.000000000
y_0_15_2 0.000000000
y_0_15_3 0.000000000
y_0_15_4 1.000000000
y_0_16_0 0.000000000
y_0_16_1 0.000000000
y_0_16_2 0.000000000
y_0_16_3 1.000000000
y_0_16_4 1.000000000
y_0_17_0 0.000000000
y_0_17_1 0.000000000
y_0_17_2 0.000000000
y_0_17_3 0.000000000
y_0_17_4 0.000000000
y_0_18_0 0.000000000
y_0_18_1 0.000000000
y_0_18_2 0.000000000
y_0_18_3 0.000000000
y_0_18_4 1.000000000
y_0_19_0 0.000000000
y_0_19_1 0.000000000
y_0_19_2 0.000000000
y_0_19_3 1.000000000
y_0_19_4 1.000000000
y_1_2_0 1.000000000
y_1_2_1 1.000000000
y_1_2_2 1.000000000
y_1_2_3 0.000000000
y_1_2_4 0.000000000
y_1_3_0 0.000000000
y_1_3_1 0.000000000
y_1_3_2 1.000000000
y_1_3_3 1.000000000
y_1_3_4 1.000000000
y_1_4_0 1.000000000
y_1_4_1 0.000000000
y_1_4_2 1.000000000
y_1_4_3 0.000000000
y_1_4_4 1.000000000
y_1_5_0 0.000000000
y_1_5_1 0.000000000
y_1_5_2 1.000000000
y_1_5_3 0.000000000
y_1_5_4 1.000000000
y_1_6_0 0.000000000
y_1_6_1 0.000000000
y_1_6_2 1.000000000
y_1_6_3 0.000000000
y_1_6_4 1.000000000
y_1_7_0 0.000000000
y_1_7_1 1.000000000
y_1_7_2 1.000000000
y_1_7_3 1.000000000
y_1_7_4 1.000000000
y_1_8_0 0.000000000
y_1_8_1 1.000000000
y_1_8_2 1.000000000
y_1_8_3 0.000000000
y_1_8_4 1.000000000
y_1_9_0 1.000000000
y_1_9_1 1.000000000
y_1_9_2 1.000000000
y_1_9_3 0.000000000
y_1_9_4 0.000000000
y_1_10_0 0.000000000
y_1_10_1 0.000000000
y_1_10_2 1.000000000
y_1_10_3 0.000000000
y_1_10_4 0.000000000
y_1_11_0 0.000000000
y_1_11_1 0.000000000
y_1_11_2 1.000000000
y_1_11_3 0.000000000
y_1_11_4 1.000000000
y_1_12_0 0.000000000
y_1_12_1 1.000000000
y_1_12_2 1.000000000
y_1_12_3 0.000000000
y_1_12_4 1.000000000
y_1_13_0 0.000000000
y_1_13_1 1.000000000
y_1_13_2 1.000000000
y_1_13_3 0.000000000
y_1_13_4 1.000000000
y_1_14_0 0.000000000
y_1_14_1 0.000000000
y_1_14_2 1.000000000
y_1_14_3 0.000000000
y_1_14_4 1.000000000
y_1_15_0 0.000000000
y_1_15_1 1.000000000
y_1_15_2 1.000000000
y_1_15_3 0.000000000
y_1_15_4 0.000000000
y_1_16_0 0.000000000
y_1_16_1 1.000000000
y_1_16_2 1.000000000
y_1_16_3 0.000000000
y_1_16_4 1.000000000
y_1_17_0 0.000000000
y_1_17_1 1.000000000
y_1_17_2 1.000000000
y_1_17_3 0.000000000
y_1_17_4 0.000000000
y_1_18_0 0.000000000
y_1_18_1 0.000000000
y_1_18_2 1.000000000
y_1_18_3 0.000000000
y_1_18_4 1.000000000
y_1_19_0 0.000000000
y_1_19_1 1.000000000
y_1_19_2 1.000000000
y_1_19_3 0.000000000
y_1_19_4 1.000000000
y_2_3_0 0.000000000
y_2_3_1 0.000000000
y_2_3_2 1.000000000
y_2_3_3 1.000000000
y_2_3_4 1.000000000
y_2_4_0 0.000000000
y_2_4_1 0.000000000
y_2_4_2 0.000000000
y_2_4_3 1.000000000
y_2_4_4 1.000000000
y_2_5_0 0.000000000
y_2_5_1 0.000000000
y_2_5_2 1.000000000
y_2_5_3 1.000000000
y_2_5_4 1.000000000
y_2_6_0 0.000000000
y_2_6_1 0.000000000
y_2_6_2 0.000000000
y_2_6_3 0.000000000
y_2_6_4 1.000000000
y_2_7_0 0.000000000
y_2_7_1 1.000000000
y_2_7_2 0.000000000
y_2_7_3 1.000000000
y_2_7_4 1.000000000
y_2_8_0 0.000000000
y_2_8_1 0.000000000
y_2_8_2 0.000000000
y_2_8_3 0.000000000
y_2_8_4 1.000000000
y_2_9_0 0.000000000
y_2_9_1 0.000000000
y_2_9_2 0.000000000
y_2_9_3 1.000000000
y_2_9_4 1.000000000
y_2_10_0 0.000000000
y_2_10_1 0.000000000
y_2_10_2 0.000000000
y_2_10_3 1.000000000
y_2_10_4 0.000000000
y_2_11_0 0.000000000
y_2_11_1 0.000000000
y_2_11_2 1.000000000
y_2_11_3 1.000000000
y_2_11_4 1.000000000
y_2_12_0 0.000000000
y_2_12_1 1.000000000
y_2_12_2 1.000000000
y_2_12_3 0.000000000
y_2_12_4 1.000000000
y_2_13_0 0.000000000
y_2_13_1 1.000000000
y_2_13_2 1.000000000
y_2_13_3 0.000000000
y_2_13_4 1.000000000
y_2_14_0 0.000000000
y_2_14_1 0.000000000
y_2_14_2 1.000000000
y_2_14_3 1.000000000
y_2_14_4 1.000000000
y_2_15_0 0.000000000
y_2_15_1 1.000000000
y_2_15_2 0.000000000
y_2_15_3 0.000000000
y_2_15_4 0.000000000
y_2_16_0 0.000000000
y_2_16_1 1.000000000
y_2_16_2 0.000000000
y_2_16_3 1.000000000
y_2_16_4 1.000000000
y_2_17_0 0.000000000
y_2_17_1 1.000000000
y_2_17_2 0.000000000
y_2_17_3 1.000000000
y_2_17_4 0.000000000
y_2_18_0 0.000000000
y_2_18_1 0.000000000
y_2_18_2 0.000000000
y_2_18_3 0.000000000
y_2_18_4 1.000000000
y_2_19_0 0.000000000
y_2_19_1 1.000000000
y_2_19_2 1.000000000
y_2_19_3 1.000000000
y_2_19_4 1.000000000
y_3_4_0 1.000000000
y_3_4_1 0.000000000
y_3_4_2 0.000000000
y_3_4_3 0.000000000
y_3_4_4 0.000000000
y_3_5_0 1.000000000
y_3_5_1 0.000000000
y_3_5_2 0.000000000
y_3_5_3 0.000000000
y_3_5_4 1.000000000
y_3_6_0 1.000000000
y_3_6_1 0.000000000
y_3_6_2 0.000000000
y_3_6_3 0.000000000
y_3_6_4 0.000000000
y_3_7_0 0.000000000
y_3_7_1 1.000000000
y_3_7_2 0.000000000
y_3_7_3 0.000000000
y_3_7_4 1.000000000
y_3_8_0 0.000000000
y_3_8_1 1.000000000
y_3_8_2 0.000000000
y_3_8_3 0.000000000
y_3_8_4 0.000000000
y_3_9_0 1.000000000
y_3_9_1 1.000000000
y_3_9_2 0.000000000
y_3_9_3 0.000000000
y_3_9_4 0.000000000
y_3_10_0 1.000000000
y_3_10_1 0.000000000
y_3_10_2 0.000000000
y_3_10_3 0.000000000
y_3_10_4 0.000000000
y_3_11_0 0.000000000
y_3_11_1 0.000000000
y_3_11_2 0.000000000
y_3_11_3 0.000000000
y_3_11_4 1.000000000
y_3_12_0 0.000000000
y_3_12_1 1.000000000
y_3_12_2 0.000000000
y_3_12_3 0.000000000
y_3_12_4 0.000000000
y_3_13_0 0.000000000
y_3_13_1 1.000000000
y_3_13_2 0.000000000
y_3_13_3 0.000000000
y_3_13_4 0.000000000
y_3_14_0 1.000000000
y_3_14_1 0.000000000
y_3_14_2 0.000000000
y_3_14_3 0.000000000
y_3_14_4 1.000000000
y_3_15_0 0.000000000
y_3_15_1 1.000000000
y_3_15_2 0.000000000
y_3_15_3 0.000000000
y_3_15_4 0.000000000
y_3_16_0 0.000000000
y_3_16_1 1.000000000
y_3_16_2 0.000000000
y_3_16_3 0.000000000
y_3_16_4 1.000000000
y_3_17_0 0.000000000
y_3_17_1 1.000000000
y_3_17_2 0.000000000
y_3_17_3 0.000000000
y_3_17_4 0.000000000
y_3_18_0 0.000000000
y_3_18_1 0.000000000
y_3_18_2 0.000000000
y_3_18_3 0.000000000
y_3_18_4 0.000000000
y_3_19_0 0.000000000
y_3_19_1 1.000000000
y_3_19_2 0.000000000
y_3_19_3 0.000000000
y_3_19_4 1.000000000
y_4_5_0 0.000000000
y_4_5_1 0.000000000
y_4_5_2 1.000000000
y_4_5_3 1.000000000
y_4_5_4 1.000000000
y_4_6_0 0.000000000
y_4_6_1 0.000000000
y_4_6_2 1.000000000
y_4_6_3 0.000000000
y_4_6_4 1.000000000
y_4_7_0 0.000000000
y_4_7_1 1.000000000
y_4_7_2 1.000000000
y_4_7_3 1.000000000
y_4_7_4 1.000000000
y_4_8_0 0.000000000
y_4_8_1 1.000000000
y_4_8_2 1.000000000
y_4_8_3 0.000000000
y_4_8_4 1.000000000
y_4_9_0 1.000000000
y_4_9_1 1.000000000
y_4_9_2 1.000000000
y_4_9_3 0.000000000
y_4_9_4 0.000000000
y_4_10_0 0.000000000
y_4_10_1 0.000000000
y_4_10_2 0.000000000
y_4_10_3 1.000000000
y_4_10_4 0.000000000
y_4_11_0 0.000000000
y_4_11_1 0.000000000
y_4_11_2 1.000000000
y_4_11_3 0.000000000
y_4_11_4 1.000000000
y_4_12_0 0.000000000
y_4_12_1 1.000000000
y_4_12_2 1.000000000
y_4_12_3 0.000000000
y_4_12_4 0.000000000
y_4_13_0 0.000000000
y_4_13_1 1.000000000
y_4_13_2 1.000000000
y_4_13_3 0.000000000
y_4_13_4 1.000000000
y_4_14_0 0.000000000
y_4_14_1 0.000000000
y_4_14_2 1.000000000
y_4_14_3 1.000000000
y_4_14_4 1.000000000
y_4_15_0 0.000000000
y_4_15_1 1.000000000
y_4_15_2 0.000000000
y_4_15_3 0.000000000
y_4_15_4 0.000000000
y_4_16_0 0.000000000
y_4_16_1 1.000000000
y_4_16_2 0.000000000
y_4_16_3 1.000000000
y_4_16_4 1.000000000
y_4_17_0 0.000000000
y_4_17_1 1.000000000
y_4_17_2 1.000000000
y_4_17_3 0.000000000
y_4_17_4 0.000000000
y_4_18_0 0.000000000
y_4_18_1 0.000000000
y_4_18_2 0.000000000
y_4_18_3 0.000000000
y_4_18_4 1.000000000
y_4_19_0 0.000000000
y_4_19_1 1.000000000
y_4_19_2 1.000000000
y_4_19_3 1.000000000
y_4_19_4 1.000000000
y_5_6_0 1.000000000
y_5_6_1 0.000000000
y_5_6_2 0.000000000
y_5_6_3 0.000000000
y_5_6_4 0.000000000
y_5_7_0 0.000000000
y_5_7_1 1.000000000
y_5_7_2 0.000000000
y_5_7_3 1.000000000
y_5_7_4 1.000000000
y_5_8_0 0.000000000
y_5_8_1 1.000000000
y_5_8_2 0.000000000
y_5_8_3 0.000000000
y_5_8_4 0.000000000
y_5_9_0 1.000000000
y_5_9_1 1.000000000
y_5_9_2 0.000000000
y_5_9_3 0.000000000
y_5_9_4 0.000000000
y_5_10_0 1.000000000
y_5_10_1 0.000000000
y_5_10_2 0.000000000
y_5_10_3 1.000000000
y_5_10_4 0.000000000
y_5_11_0 0.000000000
y_5_11_1 1.000000000
y_5_11_2 1.000000000
y_5_11_3 0.000000000
y_5_11_4 1.000000000
y_5_12_0 0.000000000
y_5_12_1 1.000000000
y_5_12_2 0.000000000
y_5_12_3 0.000000000
y_5_12_4 0.000000000
y_5_13_0 0.000000000
y_5_13_1 1.000000000
y_5_13_2 1.000000000
y_5_13_3 0.000000000
y_5_13_4 0.000000000
y_5_14_0 1.000000000
y_5_14_1 0.000000000
y_5_14_2 0.000000000
y_5_14_3 1.000000000
y_5_14_4 1.000000000
y_5_15_0 0.000000000
y_5_15_1 1.000000000
y_5_15_2 0.000000000
y_5_15_3 0.000000000
y_5_15_4 0.000000000
y_5_16_0 0.000000000
y_5_16_1 1.000000000
y_5_16_2 0.000000000
y_5_16_3 1.000000000
y_5_16_4 0.000000000
y_5_17_0 0.000000000
y_5_17_1 1.000000000
y_5_17_2 0.000000000
y_5_17_3 0.000000000
y_5_17_4 0.000000000
y_5_18_0 0.000000000
y_5_18_1 0.000000000
y_5_18_2 0.000000000
y_5_18_3 0.000000000
y_5_18_4 0.000000000
y_5_19_0 0.000000000
y_5_19_1 1.000000000
y_5_19_2 1.000000000
y_5_19_3 1.000000000
y_5_19_4 1.000000000
y_6_7_0 0.000000000
y_6_7_1 1.000000000
y_6_7_2 0.000000000
y_6_7_3 1.000000000
y_6_7_4 1.000000000
y_6_8_0 0.000000000
y_6_8_1 1.000000000
y_6_8_2 0.000000000
y_6_8_3 0.000000000
y_6_8_4 0.000000000
y_6_9_0 1.000000000
y_6_9_1 1.000000000
y_6_9_2 0.000000000
y_6_9_3 1.000000000
y_6_9_4 0.000000000
y_6_10_0 0.000000000
y_6_10_1 0.000000000
y_6_10_2 0.000000000
y_6_10_3 1.000000000
y_6_10_4 0.000000000
y_6_11_0 0.000000000
y_6_11_1 1.000000000
y_6_11_2 1.000000000
y_6_11_3 1.000000000
y_6_11_4 1.000000000
y_6_12_0 0.000000000
y_6_12_1 1.000000000
y_6_12_2 1.000000000
y_6_12_3 0.000000000
y_6_12_4 0.000000000
y_6_13_0 0.000000000
y_6_13_1 1.000000000
y_6_13_2 1.000000000
y_6_13_3 1.000000000
y_6_13_4 0.000000000
y_6_14_0 0.000000000
y_6_14_1 0.000000000
y_6_14_2 1.000000000
y_6_14_3 1.000000000
y_6_14_4 1.000000000
y_6_15_0 0.000000000
y_6_15_1 1.000000000
y_6_15_2 0.000000000
y_6_15_3 1.000000000
y_6_15_4 0.000000000
y_6_16_0 0.000000000
y_6_16_1 1.000000000
y_6_16_2 0.000000000
y_6_16_3 1.000000000
y_6_16_4 1.000000000
y_6_17_0 0.000000000
y_6_17_1 1.000000000
y_6_17_2 0.000000000
y_6_17_3 1.000000000
y_6_17_4 0.000000000
y_6_18_0 0.000000000
y_6_18_1 0.000000000
y_6_18_2 0.000000000
y_6_18_3 0.000000000
y_6_18_4 1.000000000
y_6_19_0 0.000000000
y_6_19_1 1.000000000
y_6_19_2 1.000000000
y_6_19_3 1.000000000
y_6_19_4 1.000000000
y_7_8_0 1.000000000
y_7_8_1 0.000000000
y_7_8_2 0.000000000
y_7_8_3 0.000000000
y_7_8_4 0.000000000
y_7_9_0 1.000000000
y_7_9_1 0.000000000
y_7_9_2 1.000000000
y_7_9_3 0.000000000
y_7_9_4 0.000000000
y_7_10_0 1.000000000
y_7_10_1 0.000000000
y_7_10_2 0.000000000
y_7_10_3 0.000000000
y_7_10_4 0.000000000
y_7_11_0 1.000000000
y_7_11_1 0.000000000
y_7_11_2 1.000000000
y_7_11_3 0.000000000
y_7_11_4 1.000000000
y_7_12_0 0.000000000
y_7_12_1 1.000000000
y_7_12_2 1.000000000
y_7_12_3 0.000000000
y_7_12_4 0.000000000
y_7_13_0 1.000000000
y_7_13_1 0.000000000
y_7_13_2 1.000000000
y_7_13_3 0.000000000
y_7_13_4 0.000000000
y_7_14_0 1.000000000
y_7_14_1 0.000000000
y_7_14_2 1.000000000
y_7_14_3 0.000000000
y_7_14_4 1.000000000
y_7_15_0 1.000000000
y_7_15_1 1.000000000
y_7_15_2 0.000000000
y_7_15_3 0.000000000
y_7_15_4 0.000000000
y_7_16_0 0.000000000
y_7_16_1 0.000000000
y_7_16_2 0.000000000
y_7_16_3 0.000000000
y_7_16_4 0.000000000
y_7_17_0 1.000000000
y_7_17_1 1.000000000
y_7_17_2 0.000000000
y_7_17_3 0.000000000
y_7_17_4 0.000000000
y_7_18_0 1.000000000
y_7_18_1 0.000000000
y_7_18_2 0.000000000
y_7_18_3 0.000000000
y_7_18_4 0.000000000
y_7_19_0 0.000000000
y_7_19_1 0.000000000
y_7_19_2 1.000000000
y_7_19_3 0.000000000
y_7_19_4 0.000000000
y_8_9_0 1.000000000
y_8_9_1 1.000000000
y_8_9_2 1.000000000
y_8_9_3 1.000000000
y_8_9_4 0.000000000
y_8_10_0 1.000000000
y_8_10_1 0.000000000
y_8_10_2 0.000000000
y_8_10_3 1.000000000
y_8_10_4 0.000000000
y_8_11_0 0.000000000
y_8_11_1 0.000000000
y_8_11_2 1.000000000
y_8_11_3 1.000000000
y_8_11_4 1.000000000
y_8_12_0 0.000000000
y_8_12_1 1.000000000
y_8_12_2 1.000000000
y_8_12_3 0.000000000
y_8_12_4 0.000000000
y_8_13_0 0.000000000
y_8_13_1 1.000000000
y_8_13_2 1.000000000
y_8_13_3 1.000000000
y_8_13_4 0.000000000
y_8_14_0 1.000000000
y_8_14_1 0.000000000
y_8_14_2 1.000000000
y_8_14_3 1.000000000
y_8_14_4 1.000000000
y_8_15_0 0.000000000
y_8_15_1 1.000000000
y_8_15_2 0.000000000
y_8_15_3 1.000000000
y_8_15_4 0.000000000
y_8_16_0 0.000000000
y_8_16_1 1.000000000
y_8_16_2 0.000000000
y_8_16_3 1.000000000
y_8_16_4 1.000000000
y_8_17_0 0.000000000
y_8_17_1 1.000000000
y_8_17_2 0.000000000
y_8_17_3 1.000000000
y_8_17_4 0.000000000
y_8_18_0 0.000000000
y_8_18_1 0.000000000
y_8_18_2 0.000000000
y_8_18_3 1.000000000
y_8_18_4 1.000000000
y_8_19_0 0.000000000
y_8_19_1 1.000000000
y_8_19_2 1.000000000
y_8_19_3 1.000000000
y_8_19_4 1.000000000
y_9_10_0 0.000000000
y_9_10_1 0.000000000
y_9_10_2 0.000000000
y_9_10_3 1.000000000
y_9_10_4 0.000000000
y_9_11_0 0.000000000
y_9_11_1 0.000000000
y_9_11_2 1.000000000
y_9_11_3 1.000000000
y_9_11_4 1.000000000
y_9_12_0 0.000000000
y_9_12_1 1.000000000
y_9_12_2 1.000000000
y_9_12_3 0.000000000
y_9_12_4 1.000000000
y_9_13_0 0.000000000
y_9_13_1 1.000000000
y_9_13_2 1.000000000
y_9_13_3 0.000000000
y_9_13_4 1.000000000
y_9_14_0 0.000000000
y_9_14_1 0.000000000
y_9_14_2 1.000000000
y_9_14_3 1.000000000
y_9_14_4 1.000000000
y_9_15_0 0.000000000
y_9_15_1 1.000000000
y_9_15_2 0.000000000
y_9_15_3 0.000000000
y_9_15_4 0.000000000
y_9_16_0 0.000000000
y_9_16_1 1.000000000
y_9_16_2 0.000000000
y_9_16_3 1.000000000
y_9_16_4 1.000000000
y_9_17_0 0.000000000
y_9_17_1 1.000000000
y_9_17_2 0.000000000
y_9_17_3 0.000000000
y_9_17_4 0.000000000
y_9_18_0 0.000000000
y_9_18_1 0.000000000
y_9_18_2 0.000000000
y_9_18_3 0.000000000
y_9_18_4 1.000000000
y_9_19_0 0.000000000
y_9_19_1 1.000000000
y_9_19_2 1.000000000
y_9_19_3 1.000000000
y_9_19_4 1.000000000
y_10_11_0 0.000000000
y_10_11_1 1.000000000
y_10_11_2 1.000000000
y_10_11_3 0.000000000
y_10_11_4 1.000000000
y_10_12_0 0.000000000
y_10_12_1 1.000000000
y_10_12_2 1.000000000
y_10_12_3 0.000000000
y_10_12_4 1.000000000
y_10_13_0 0.000000000
y_10_13_1 1.000000000
y_10_13_2 1.000000000
y_10_13_3 0.000000000
y_10_13_4 1.000000000
y_10_14_0 1.000000000
y_10_14_1 0.000000000
y_10_14_2 1.000000000
y_10_14_3 1.000000000
y_10_14_4 1.000000000
y_10_15_0 0.000000000
y_10_15_1 1.000000000
y_10_15_2 0.000000000
y_10_15_3 0.000000000
y_10_15_4 1.000000000
y_10_16_0 0.000000000
y_10_16_1 1.000000000
y_10_16_2 0.000000000
y_10_16_3 1.000000000
y_10_16_4 1.000000000
y_10_17_0 0.000000000
y_10_17_1 1.000000000
y_10_17_2 1.000000000
y_10_17_3 0.000000000
y_10_17_4 0.000000000
y_10_18_0 0.000000000
y_10_18_1 0.000000000
y_10_18_2 1.000000000
y_10_18_3 0.000000000
y_10_18_4 1.000000000
y_10_19_0 0.000000000
y_10_19_1 1.000000000
y_10_19_2 1.000000000
y_10_19_3 1.000000000
y_10_19_4 1.000000000
y_11_12_0 0.000000000
y_11_12_1 1.000000000
y_11_12_2 0.000000000
y_11_12_3 0.000000000
y_11_12_4 0.000000000
y_11_13_0 0.000000000
y_11_13_1 1.000000000
y_11_13_2 1.000000000
y_11_13_3 0.000000000
y_11_13_4 0.000000000
y_11_14_0 1.000000000
y_11_14_1 0.000000000
y_11_14_2 0.000000000
y_11_14_3 1.000000000
y_11_14_4 1.000000000
y_11_15_0 0.000000000
y_11_15_1 1.000000000
y_11_15_2 0.000000000
y_11_15_3 0.000000000
y_11_15_4 0.000000000
y_11_16_0 0.000000000
y_11_16_1 1.000000000
y_11_16_2 0.000000000
y_11_16_3 1.000000000
y_11_16_4 0.000000000
y_11_17_0 0.000000000
y_11_17_1 1.000000000
y_11_17_2 0.000000000
y_11_17_3 0.000000000
y_11_17_4 0.000000000
y_11_18_0 0.000000000
y_11_18_1 0.000000000
y_11_18_2 0.000000000
y_11_18_3 0.000000000
y_11_18_4 0.000000000
y_11_19_0 0.000000000
y_11_19_1 1.000000000
y_11_19_2 0.000000000
y_11_19_3 1.000000000
y_11_19_4 0.000000000
y_12_13_0 1.000000000
y_12_13_1 0.000000000
y_12_13_2 1.000000000
y_12_13_3 1.000000000
y_12_13_4 1.000000000
y_12_14_0 1.000000000
y_12_14_1 0.000000000
y_12_14_2 0.000000000
y_12_14_3 1.000000000
y_12_14_4 1.000000000
y_12_15_0 1.000000000
y_12_15_1 1.000000000
y_12_15_2 0.000000000
y_12_15_3 1.000000000
y_12_15_4 0.000000000
y_12_16_0 1.000000000
y_12_16_1 0.000000000
y_12_16_2 0.000000000
y_12_16_3 1.000000000
y_12_16_4 1.000000000
y_12_17_0 1.000000000
y_12_17_1 0.000000000
y_12_17_2 0.000000000
y_12_17_3 1.000000000
y_12_17_4 0.000000000
y_12_18_0 1.000000000
y_12_18_1 0.000000000
y_12_18_2 0.000000000
y_12_18_3 1.000000000
y_12_18_4 1.000000000
y_12_19_0 0.000000000
y_12_19_1 0.000000000
y_12_19_2 1.000000000
y_12_19_3 1.000000000
y_12_19_4 1.000000000
y_13_14_0 1.000000000
y_13_14_1 0.000000000
y_13_14_2 0.000000000
y_13_14_3 1.000000000
y_13_14_4 1.000000000
y_13_15_0 1.000000000
y_13_15_1 1.000000000
y_13_15_2 0.000000000
y_13_15_3 0.000000000
y_13_15_4 0.000000000
y_13_16_0 0.000000000
y_13_16_1 0.000000000
y_13_16_2 0.000000000
y_13_16_3 1.000000000
y_13_16_4 1.000000000
y_13_17_0 0.000000000
y_13_17_1 1.000000000
y_13_17_2 0.000000000
y_13_17_3 1.000000000
y_13_17_4 0.000000000
y_13_18_0 0.000000000
y_13_18_1 0.000000000
y_13_18_2 0.000000000
y_13_18_3 0.000000000
y_13_18_4 1.000000000
y_13_19_0 0.000000000
y_13_19_1 0.000000000
y_13_19_2 0.000000000
y_13_19_3 1.000000000
y_13_19_4 1.000000000
y_14_15_0 0.000000000
y_14_15_1 1.000000000
y_14_15_2 0.000000000
y_14_15_3 0.000000000
y_14_15_4 0.000000000
y_14_16_0 0.000000000
y_14_16_1 1.000000000
y_14_16_2 0.000000000
y_14_16_3 1.000000000
y_14_16_4 0.000000000
y_14_17_0 0.000000000
y_14_17_1 1.000000000
y_14_17_2 0.000000000
y_14_17_3 0.000000000
y_14_17_4 0.000000000
y_14_18_0 0.000000000
y_14_18_1 1.000000000
y_14_18_2 0.000000000
y_14_18_3 0.000000000
y_14_18_4 0.000000000
y_14_19_0 0.000000000
y_14_19_1 1.000000000
y_14_19_2 1.000000000
y_14_19_3 0.000000000
y_14_19_4 0.000000000
y_15_16_0 0.000000000
y_15_16_1 0.000000000
y_15_16_2 1.000000000
y_15_16_3 1.000000000
y_15_16_4 1.000000000
y_15_17_0 0.000000000
y_15_17_1 0.000000000
y_15_17_2 1.000000000
y_15_17_3 1.000000000
y_15_17_4 0.000000000
y_15_18_0 0.000000000
y_15_18_1 0.000000000
y_15_18_2 1.000000000
y_15_18_3 0.000000000
y_15_18_4 1.000000000
y_15_19_0 0.000000000
y_15_19_1 0.000000000
y_15_19_2 1.000000000
y_15_19_3 1.000000000
y_15_19_4 1.000000000
y_16_17_0 1.000000000
y_16_17_1 1.000000000
y_16_17_2 1.000000000
y_16_17_3 0.000000000
y_16_17_4 0.000000000
y_16_18_0 1.000000000
y_16_18_1 0.000000000
y_16_18_2 1.000000000
y_16_18_3 0.000000000
y_16_18_4 0.000000000
y_16_19_0 0.000000000
y_16_19_1 0.000000000
y_16_19_2 1.000000000
y_16_19_3 0.000000000
y_16_19_4 1.000000000
y_17_18_0 0.000000000
y_17_18_1 0.000000000
y_17_18_2 0.000000000
y_17_18_3 0.000000000
y_17_18_4 1.000000000
y_17_19_0 0.000000000
y_17_19_1 0.000000000
y_17_19_2 1.000000000
y_17_19_3 1.000000000
y_17_19_4 1.000000000
y_18_19_0 0.000000000
y_18_19_1 1.000000000
y_18_19_2 1.000000000
y_18_19_3 1.000000000
y_18_19_4 1.000000000
